n=10; m= 10; 

14	16	43	49	19	44	6	1	1	39
28	5	18	48	31	17	38	49	16	30
14	32	15	24	13	20	41	29	41	27
38	27	23	16	19	49	28	31	41	2
13	22	42	80	32	48	12	2	17	8
34	19	24	30	30	32	31	17	24	4
10	9	35	33	3	21	11	27	38	32
25	37	37	37	41	5	8	6	19	28
19	21	22	26	23	34	24	32	20	23
13	22	42	80	32	48	12	2	17	8
 
 
